
 102   30
  10   10   10   10   10   10   10   10   10   10   10   10   10   10   10   10   10   10   10   10   10   10   10   10   10   10   10   10   10   10

   0   0   0   0   0   0   0   0   0   0   0   0   0   0   0   0   0   0   0   0   0   0   0   0   0   0   0   0   0   0   0  27 2 3 4 5 6 7 8 9 10 12 13 14 15 17 19 20 22 24 25 26 27 32 33 34 35 39 43 
   7   1   0   0   0   0   0   0   0   0   0   0   0   4   0   0   0   0   0   0   0   2   0   0   0   3   0   0   0   0   0  10 76 66 60 55 48 44 42 30 21 11 
   4   0   0   0   0   0   3   0   0   1   0   0   0   0   0   0   0   0   0   0   0   4   0   0   0   0   0   0   0   0   0  19 101 87 77 76 75 74 71 66 60 57 56 53 47 42 41 40 38 37 30 
   6   0   0   1   0   0   0   0   0   0   0   0   0   0   0   1   0   0   0   0   0   0   0   0   0   0   0   0   0   0   0  13 77 76 57 56 55 54 53 51 49 48 44 36 18 
   3   0   0   0   0   0   6   0   0   0   0   0   0   0   0   0   0   0   0   0   0   3   1   1   0   0   0   0   1   0   0  13 76 75 65 57 56 54 53 52 46 42 41 28 16 
  10   0   0   0   1   0   0   0   0   0   0   0   0   0   0   0   0   0   0   0   0   0   0   0   0   0   0   0   0   2   0  16 99 87 77 75 74 73 66 64 63 58 54 52 48 42 31 29 
   7   0   0   0   8   0   0   0   0   0   0   0   0   0   0   0   0   0   0   0   1   0   0   0   0   0   0   0   0   0   0  14 77 76 75 73 72 60 53 49 46 45 42 40 38 28 
   1   0   0   0   0   0   0   0   0   0   0   0   0   0   0   0   0   0   0   1   0   0   6  10   0   0   0   0   5   3   2   9 86 76 74 65 57 53 52 37 18 
  10   0   0   0   0   0   0   0   0   0   0   0   2   0   0   0   2   0   0   0   0   0   0   4   0   0   0   0   0   0   0  16 86 76 71 67 66 65 62 61 60 57 51 50 46 42 38 30 
   4   0   0   0   0   0   0   3   0   0   1   0   0   0   0   0   0   0   0   0   0   0   5   0   0   0   0   1   0   0   0   8 87 75 58 53 46 44 40 23 
   6   0   0   0   7   0   0   0   0   0   0   1   0   0   0   0   0   3   0   0   0   0   0   0   1   3   0   0   0   0   0  17 101 95 88 87 75 73 71 70 69 57 56 53 52 49 47 41 40 
   5   0   0   0   0   0   0   0   1   0   0   0   0   4   0   0   0   0   0   0   0  10   0   0   0   0   0   0   0   0   0  20 100 98 96 95 88 87 86 74 72 71 64 62 60 59 58 57 56 52 51 41 
   3   0   0   0   0   0   0   0   7   0   0   4   0   0   0   0   0   0   0   0   0   0   0   0   0   0   0   0   0   0   0  20 100 90 88 87 86 75 73 72 71 66 64 63 62 61 60 59 58 53 51 42 
   3   0   0   0   0   0   0   0   0   3   0   0   0   0   0   0   0   0   3   0   4   8   0   0   7   0   0   8   0   0   0  16 101 98 97 95 87 86 77 75 71 66 64 57 55 47 45 41 
   7   0   0   0   0   0   0   0   0   0   0   0   0   0   0   0   0   6   0   0   0   0   0   0   0   0   0   0   0   6   6  15 100 99 90 88 87 76 74 71 63 61 60 59 52 42 40 
   3   0   0   0   0   0   0   0   0   0   0   0   0   0   0   0   0   0   0   0   6   0   3   6   0   8   0   0   0   5   1  16 101 100 99 98 96 94 87 86 83 73 72 64 63 60 59 37 
   6   4   0   0   0   0   0   0   6   0   0   0   0   7   0   0   0   0   0   0   0   0   0   9   0   0   0   0   0   0   0  14 100 90 86 74 72 65 64 63 61 60 58 57 46 42 
  10   0   0   0   0   2   6   0   0   0   0   0   0   0   0   0   0   0   0   0   0   0   0   7   0   0   0   0   8   0   0  10 101 97 87 75 71 63 62 60 42 30 
   5   0   0   0   0   0   0   0   0   0   0   6   0   0   0   0   0   0   0   0   0   0   0   0   0   0   0   0   0   0   0  15 99 97 96 76 74 71 70 69 67 63 62 59 53 52 47 
   2  10   0   0   0   0   8   0   0   0   0   0   0   0   0   0   0   4   0   0   0   0   0   0   0   0   0   0   0   0   0  14 101 99 96 95 93 74 73 71 69 64 61 55 49 40 
   6   8   0   0   0   0   8   0   0   0   0   0   0   0   0   0   0   0   0   0   0   4   0   0   0   0   0   0   0   0   0  18 101 100 99 96 94 93 92 91 90 73 71 65 64 61 59 58 53 51 
   2   0   0   0   0   5   0   0   0   0   0   0   0   0   0   0   0   0   0   0   8   3   0   0   0   0   0   0   0   0   0  15 100 99 97 92 90 89 88 87 75 72 71 64 62 53 42 
   9   0   0   0   0   0   0   0   0   8   0   0   0   0   0   0   0   0   0   0   0   0   0   0   0   0   0   0   0   0   4  22 101 100 98 97 96 94 93 91 90 88 84 83 81 80 74 73 72 69 65 63 60 59 
  10   0   0   0   0   7   0   0   0   0   0   0   0   0   0   0   0   0   0   6   0   0   7   0   0   0   2   0   0  10   0  21 101 100 99 98 97 95 94 93 91 90 87 81 76 72 71 70 66 61 59 58 57 
   5   0   0   0   7   0   0   0   0   0   0   0   0   0   0   0   0   0   0   0   7   0   0   0   0   0   0   5   0   0   9  17 100 99 97 96 92 90 87 80 74 73 71 65 64 61 60 59 52 
   7   5   0   0   0   0   0   0   0   0   0   0   0   0   0   0   0   0   5   0   0   0   9   0   0   0   0   0   0   0   0  20 101 99 98 97 96 94 92 90 87 84 79 77 75 72 71 70 69 62 59 57 
   2   0   0   0   0   0   0   0   0   9   0   0   0   0   0   8   0   0   0   0   0   0   0   0   0   0   0   0   0   0   0  18 101 100 99 97 96 92 91 90 87 86 83 74 73 72 68 65 64 60 
   3   0   0   0   0   0   0   0   0   0   0   0   0   0   1   0   0   0   0   6   5   0   0   0   0   0   0   0   7   0   0  16 101 100 93 90 89 87 86 80 74 71 70 69 64 63 62 59 
   3   0   0   0   0   0   0   0   0   6   0   0   0   0   0   0   0   0   6   4   0   0   0   6   0   0   0   0   0   0   0  13 100 96 93 91 90 71 70 69 65 62 61 59 53 
  10   0   0   0   0   0  10   0   0   0   0   0   0   0   0   0   0   0   0   0   0   0   0   0   0  10   0   0   0   4   6  18 100 99 96 95 94 92 91 90 89 84 83 80 73 72 70 69 68 64 
   5   0   0   0   0   0   0   0   0   0   0   0   0   0   0   0   0   0   0   0   0   6   7   9   0   0   7   0   0   0   0  13 101 98 94 91 90 81 72 71 69 61 60 59 57 
   8   0   0   0   0   0   0   5   6   0   0   0   5   0   0   0   0   0   0   0   0   0   0   0  10   0   0   0   0   0   0  14 98 96 93 90 89 87 81 80 72 71 70 69 61 59 
   8   0   0   0   5   0   9   0   0   0   0   6   5   0   0   0   0   0   0   0   0   0   8   0   0   5   0   0   0   0   0  14 97 95 94 91 90 89 80 74 72 71 69 64 63 62 
   7   0   2   0   0   0   0   0   0   0   5   0   0   0   0   0   0   0   0   0   0  10   0   0   0   0   0   0   0   9   0  12 96 94 93 91 90 85 83 70 69 59 57 53 
  10   0   7   0   0   0   0   0   0   0   0   0   0   0   0   0   0   4   0   0   0   0   0   0   0   0   0   0   0   0   0  15 100 99 96 95 94 88 85 82 80 75 73 71 68 62 61 
   2   6   0   0   0   0   7   0   0   0   0   0   0   0   0   0   0   6   0   0   0   0   0   0   0   7   0   0   0   0   0  13 99 98 94 93 90 89 86 83 80 72 70 61 59 
   7   0   0   0   0   0   4  10   0   0   0   0   0   0   0   0   0   0   6   0   5   0   0  10   0   0   0   0   0   0   0  12 97 95 93 91 90 88 85 80 70 62 61 58 
  10   0   0   5   7   0   0   0   9   4   0   0   7   0   0   0   6   0  10   0   0   0   0   4   0   7   0   0   0   0   0  11 100 95 93 90 89 84 80 79 63 59 58 
   9   0   0   0   0   0   0  10   0   0   0  10   0   0   0   0   0   0   0   0   0   0   0   0   0   8   3   8   0   0   0  11 100 97 92 90 89 85 81 79 69 68 56 
  10   0   0   0   0   0   0   0   0   0   0   0   0   0  10   0   7   8   0   0   0   0   0   0   0   0   0   0   0   5   0   7 98 94 89 86 85 62 51 
   3   0   0   0   0   0   0   0   4   0   0   0   0   0   0   0   0   0   0   0   0   0   0   0   0   0   0   0   0   0   6  10 99 93 89 83 82 81 80 68 63 61 
   8   0   0   6   0   0   5   0   0   0   0   0   0   0   0   0   0   0   0   0   0   0   0   0   0   0   0   0   0   8   0  12 96 95 94 93 91 85 84 81 80 70 69 68 
   6   0   0   0   0   0   7   0   7   0   0   0   0   0   0   0   0   0   0   0   0  10   0   0   6   0   0   3   0   0   0   8 99 98 89 80 68 63 62 61 
   5   0   0   0   0   0   0   0   0   0   0  10   0   0   0   0   6   0   0   0   0   0   0   0   0   9   0   0   5   4   0  10 97 92 90 89 86 81 80 74 68 61 
   1   4   0   0   0   0   0   0   0   0   0   0   0   0   2   0   0   0   0   7   0   0   0   0   0   8   0   7   0   0   0  10 96 94 91 89 85 84 83 79 69 68 
   5   6   0   0   0   0   0   0   0   0   0   0   0   0   0   0   0   0   0   0   0   0   0   0   0   5   0   0   0   0   0  11 99 98 96 94 93 88 83 81 80 79 78 
   2   0   0   0   0   0   0   0   0   0   0   0   0   0   7   0   0   0   0   0   8   0   0   0   0   0   0   0   7   0   0   9 100 92 91 90 89 84 83 79 72 
   1   0   0   0   0   7   0   0   0   0   0   0   0   0   0   0   0   0   0   0   0   0   0   0   0   0   0   0   0   0   0   7 97 96 95 93 82 71 62 
   8   0   7   0   0   0   0   0   0   0   0   0   0   7   0   0   0   0   6   0   0   0   0   0   0   0   8   0   0   0   0   9 97 92 91 85 84 83 82 81 80 
  10   5   0   0   0   0   0   0   0   0   0   0   3   0   0   6   6   0   0   0   0   0   0   0   0   0   5   0   0   0  10   8 99 98 95 92 91 80 70 68 
   6   0   8   8   0   0   0   0   0   0   0   0   0   0   0   0   0   4   0   0   0   0   0   0   8   0   0   0   9   0   0   7 97 84 83 82 80 79 68 
   1   0   3   0   0   0   0   6   0   0   6   0   8   0   0   0   0   0   0   0   0   0   0   4   0   0   0   0   0   0   0   5 94 93 91 81 68 
   9   0   0   0   0   0   8   0   7   0   0   0   0   0   0   0   0   0   0   0   0   0   0   0   0   5   0   0   0   0   0   5 98 84 81 80 79 
   2   0   0   8   0   0   0   0   0   0   0   0   0   6   0   0   7   0   0   0   0   0   0   0   0   0   0   0   0   0   0   5 83 81 80 79 78 
   4   0   0   0   0   0   0   0   0   0   0   0   0   0   0   0   0   0   6   0   0   0   0   0   0   0   0   0   0   0   0   4 89 80 79 70 
   6   0   0   0   0   0   0   0   0   9   0   8   0   1   0   0   0   0   0   0   0   0   0   0   0   0   0   0   0   0   0   4 84 83 80 78 
   4   0   0   0   0   0   0   0   0   0   0   0   0   0   7   0   0   0   0   0   0   0   0   0   0   0   0   0   0   5   0   3 89 80 68 
   1  10   0   0   0   0   0   0   0   0   0   0   0   0   0   0   6   0   0   0   4   0   0   9   0   0   0   0   0   0   0   2 69 68 
   9   0   0   0   0   0   0   0   0   0   0   0   0   6   0   0   0   0   0   0   0   0   0   0   0   0   0   0   0   0   0   2 82 68 
   5   9   0   0   7   0   3   0   0   6   0   0   0   0   0   0   0   0   0   0   0   0   0   0   3   6   0   0   0   0   8   2 79 70 
   2   7   0   0   0   5   7   0   0   0   0   0   0   0   0   0   0   0   0   0   0   0   6   4   0   0   0   0   0   0   0   2 84 79 
   7   0   0   0   0   0   0   0   0   0   0   5   0   7   0   0   0   0   0   6   7   0   0   0   0   0   0   0   0   0   0   2 81 78 
   7   0   7   7   0   0   4   0   0   5   0   0   0   0   0   0   0   0   0   0   0   0   6   0   8   0   0   0   0   0   0   2 92 85 
   1   0   6   0   0  10   2   0   0   0   0   0   0   0   8   0   0   0   0   0   0   0   0   0   8   0   0   6   0  10   0   2 85 81 
  10   0   0   0   0   0   0   4   0   0   0   0   0   0   0   7  10   0   0   0   0   0   0   0   0   0   0   0   0   0   0   2 95 89 
  10   0   5   0   0   0   0   0   0   0   0   0   0   0   0   0   0  10   0   0   0   0   0   0   0   4   0   0   0   6   0   2 89 78 
   1   0   0   0   0   0   0   0   0   2   0   0   0   0   0   0   0   0   0   0   0   0   0   0   0   7   0   0   0   0  10   2 82 78 
   9   0   0   0   0   0   0   0   0   0   0   6  10   0   0   0   0   0   0   0   0   0   0   0   0   4   0   0   0   0   5   1 78 
   9   0   0   5   0   0   0   0   0   0   0   0   4   0   0   0   0   0   0   0   0   0   0   0   0   0   0   8   0   5   0   1 82 
   5   0   0   0   0   0   0   0   0   9   0   0   0   0   0   0   0   0   0   0   4   0   0   0   0   4   0   0   0   0   5   1 78 
   6   0   0   0   6   0   0   0   5   6   0   0   8   7   0   0   0   0   0   0   0   0   0   0   0   0  10   0   0   0   0   1 83 
  10   0   0   0   0   0   0   0   0   0   0   0   0   0   0   0   0   0   0   0   0   0   0   0   4   0   0   5   0   0   0   1 85 
   8   0   0   0   0   0   0   0   0   0   0   0   0   0   0   0   0   0   5   0   0   0   6   0   0   0   0   0   0   6   0   1 79 
   5   0   0   0   6   0   0   0   0   0   0   0   0   0   0   0   0   0   7   0   0   6   0   0   0   0   0   0   0   5   0   1 79 
   5   0   0  10   4   0   3   0   0   0   0   4   0   0   0   0   0   0   0   0   0   0   7   0   6   0   5   0   0   0   0   1 78 
   1   8   0   0   0   0   0   0   0   0   0   0   0   0   7   0   0   0   0   0   8   0   0   4   0   0   0   0   0   0   2   1 78 
   7   0   0   0   0   0   0   0   0   0   0   0   0   0   0   0   3   0   0   0   0   0   0   0   4   0   0   0   0   0   0   1 88 
   9   3   0   0   0   0   0   0   0   7   0   0   5   0   0   0   0  10   0   0   0   0   0   0   3   0   0   0   0   6   0   1 102
   9   7   0   0   0   7   0   0   0   8   0   0   0   0   0   0   0   0   5   0   0   0   0   0   0   0   0   0   0   0   0   1 102
   3   0   5   0   0   0   0   0   0   0   0   6   0   0   0   0   0   0   6   0   9   6   4   0   0   5   2   0   0   0   0   1 102
   7   0   0   0   0   0   0   0   0   0   0   0   0   0   0   0   0   0   0   0   0   0   0   0   0   0   0   0   0   0   7   1 102
   5   0   0   0   0   0   0   0   0   0   0   0   0   6   0   0   0   0   0   0   5   0   8   0   0   0   6   0   0   0   0   1 102
  10   4   0   0   0   0   0   0   0   0   8   0   7   0   0   0   0   0   0   6   0   0   0   0   5   6   0   0   0   0   0   1 102
   3   0   0   0   0   0   0   0   0   0   0   0   0   0   0   0   0   0   0   5   0   0   0   0   0   6   0   6   0   0   0   1 102
   8   0   0   0   0   0   0   0   0   0   0   0   0   0   0   0   0   7   0   0   0   0   0   0   0   0   0   0   0   7   0   1 102
   7   0   0   0   0   0   0   5   0   0   0   8   7   0   0   0   0   0   0   0   6   0   0   0   0   0   7   0   0   0   0   1 102
   7   0   0   0   0   0   0   0   0   0   0   0   0   0   0   0   0   0   0   0   0   0   0   0   0   0  10   0   0   0   0   1 102
   6   0   0   0   0   0   0   0   0   5   0   0   0   0   0   0   0   0   6   0   9   0   0   3   8   0   0   0   0  10   0   1 102
   9   0   0   0   0   0   0   0   0   0   0   0   0   0   0   0   0  10   0   8   2   0   0   0   0   0   0   5   0   0   4   1 102
   5   0   0   0   6   0   0   0   0   0   0   0   0   0   0   0   0   3   0   0   0   0   0   0   9   0   0   0   0   0   0   1 102
   4   0  10   0   0   0   0   0   0   0   0   0   7   0   0   0   0   6   0   0   0   0   0   0   0   0   0   0   6   0   0   1 102
   6   0   6   0   0   0   0   0   8   0   0   0   0   0   5   0   0   0   7   9   6   0   7   0   0   0   0   0   0   0   7   1 102
   5   0   0   0   0   5   0   0   0   8   0   0   0   0   0   8   0   0   0   0   0   0   0   0   0   0   0   0   0   0  10   1 102
   2   5   0   0   5   0   0   5   0   0   0   0   6   6   0   0   0   0   0   8   0   0   0   0   0   0   6   0   0   0   0   1 102
   2   0   0   0   0   0   0   0   0   0   0   0   0   0   0   0   7   6   0   0   0   0   0   0   0   0   0   0   0   0   0   1 102
   9   0   0   0   0   0   0   0   0   0   0   0   0   0   0   0   0   0   0   0   0   0   0   0   0   0   0  10   0   0   0   1 102
   4   0   0   6   0   0   0   0   0   0   0   0   0  10   6   0   0   0   0   0   0   0   0   0   0   0   0   0   0   0   0   1 102
  10   0   0   7   0   0   0   0   0   0   7   4   0   7   0   0   0   0   0   0   0   0   0   0   0   0   0   0   0   0   0   1 102
  10   0   0   0   0   0   8   0   0   0   0   0   0   6   0   0   0   0   0   0   0   0   0   0   0   0   0   0   0   0   0   1 102
   1   0   0   0   9   0   0   0   0   0   0   0   0   0   0   0   0   7   0   0   0   0   0   0   0   0   7   0   0   4   0   1 102
   3   0   0   3   0   0   0   0   0   0   9   0   0   0   7   0   0   2   0   0  10   0   0   0   0   0   0   0   0   0   0   1 102
   0   0   0   0   0   0   0   0   0   0   0   0   0   0   0   0   0   0   0   0   0   0   0   0   0   0   0   0   0   0   0   0 
